p cnf 39 300
4 7 11 16 22 29 37 46 56 67 79 92 106 0
8 12 17 23 30 38 47 57 68 80 93 107 122 0
13 18 24 31 39 48 58 69 81 94 108 123 139 0
-4 -8 0
-7 -12 0
-11 -17 0
-16 -23 0
-22 -30 0
-29 -38 0
-37 -47 0
-46 -57 0
-56 -68 0
-67 -80 0
-79 -93 0
-92 -107 0
-106 -122 0
-4 -13 0
-7 -18 0
-11 -24 0
-16 -31 0
-22 -39 0
-29 -48 0
-37 -58 0
-46 -69 0
-56 -81 0
-67 -94 0
-79 -108 0
-92 -123 0
-106 -139 0
-8 -13 0
-12 -18 0
-17 -24 0
-23 -31 0
-30 -39 0
-38 -48 0
-47 -58 0
-57 -69 0
-68 -81 0
-80 -94 0
-93 -108 0
-107 -123 0
-122 -139 0
-4 -12 0
-4 -17 0
-4 -23 0
-4 -30 0
-4 -38 0
-4 -80 0
-4 -122 0
-7 -23 0
-7 -30 0
-7 -38 0
-7 -68 0
-7 -80 0
-7 -107 0
-11 -23 0
-11 -30 0
-11 -47 0
-11 -68 0
-11 -80 0
-11 -93 0
-11 -122 0
-16 -38 0
-16 -47 0
-16 -57 0
-16 -68 0
-16 -122 0
-22 -38 0
-22 -57 0
-22 -68 0
-22 -107 0
-22 -122 0
-29 -47 0
-29 -122 0
-37 -57 0
-37 -107 0
-37 -122 0
-46 -68 0
-46 -80 0
-46 -122 0
-56 -93 0
-56 -122 0
-67 -93 0
-67 -107 0
-67 -122 0
-4 -18 0
-4 -24 0
-4 -31 0
-4 -39 0
-4 -48 0
-4 -94 0
-4 -139 0
-7 -31 0
-7 -39 0
-7 -48 0
-7 -81 0
-7 -94 0
-7 -123 0
-11 -31 0
-11 -39 0
-11 -58 0
-11 -81 0
-11 -94 0
-11 -108 0
-11 -139 0
-16 -48 0
-16 -58 0
-16 -69 0
-16 -81 0
-16 -139 0
-22 -48 0
-22 -69 0
-22 -81 0
-22 -123 0
-22 -139 0
-29 -58 0
-29 -139 0
-37 -69 0
-37 -123 0
-37 -139 0
-46 -81 0
-46 -94 0
-46 -139 0
-56 -108 0
-56 -139 0
-67 -108 0
-67 -123 0
-67 -139 0
-8 -7 0
-8 -11 0
-8 -16 0
-8 -22 0
-8 -29 0
-8 -67 0
-8 -106 0
-12 -16 0
-12 -22 0
-12 -29 0
-12 -56 0
-12 -67 0
-12 -92 0
-17 -16 0
-17 -22 0
-17 -37 0
-17 -56 0
-17 -67 0
-17 -79 0
-17 -106 0
-23 -29 0
-23 -37 0
-23 -46 0
-23 -56 0
-23 -106 0
-30 -29 0
-30 -46 0
-30 -56 0
-30 -92 0
-30 -106 0
-38 -37 0
-38 -106 0
-47 -46 0
-47 -92 0
-47 -106 0
-57 -56 0
-57 -67 0
-57 -106 0
-68 -79 0
-68 -106 0
-80 -79 0
-80 -92 0
-80 -106 0
-8 -18 0
-8 -24 0
-8 -31 0
-8 -39 0
-8 -48 0
-8 -94 0
-8 -139 0
-12 -31 0
-12 -39 0
-12 -48 0
-12 -81 0
-12 -94 0
-12 -123 0
-17 -31 0
-17 -39 0
-17 -58 0
-17 -81 0
-17 -94 0
-17 -108 0
-17 -139 0
-23 -48 0
-23 -58 0
-23 -69 0
-23 -81 0
-23 -139 0
-30 -48 0
-30 -69 0
-30 -81 0
-30 -123 0
-30 -139 0
-38 -58 0
-38 -139 0
-47 -69 0
-47 -123 0
-47 -139 0
-57 -81 0
-57 -94 0
-57 -139 0
-68 -108 0
-68 -139 0
-80 -108 0
-80 -123 0
-80 -139 0
-13 -7 0
-13 -11 0
-13 -16 0
-13 -22 0
-13 -29 0
-13 -67 0
-13 -106 0
-18 -16 0
-18 -22 0
-18 -29 0
-18 -56 0
-18 -67 0
-18 -92 0
-24 -16 0
-24 -22 0
-24 -37 0
-24 -56 0
-24 -67 0
-24 -79 0
-24 -106 0
-31 -29 0
-31 -37 0
-31 -46 0
-31 -56 0
-31 -106 0
-39 -29 0
-39 -46 0
-39 -56 0
-39 -92 0
-39 -106 0
-48 -37 0
-48 -106 0
-58 -46 0
-58 -92 0
-58 -106 0
-69 -56 0
-69 -67 0
-69 -106 0
-81 -79 0
-81 -106 0
-94 -79 0
-94 -92 0
-94 -106 0
-13 -12 0
-13 -17 0
-13 -23 0
-13 -30 0
-13 -38 0
-13 -80 0
-13 -122 0
-18 -23 0
-18 -30 0
-18 -38 0
-18 -68 0
-18 -80 0
-18 -107 0
-24 -23 0
-24 -30 0
-24 -47 0
-24 -68 0
-24 -80 0
-24 -93 0
-24 -122 0
-31 -38 0
-31 -47 0
-31 -57 0
-31 -68 0
-31 -122 0
-39 -38 0
-39 -57 0
-39 -68 0
-39 -107 0
-39 -122 0
-48 -47 0
-48 -122 0
-58 -57 0
-58 -107 0
-58 -122 0
-69 -68 0
-69 -80 0
-69 -122 0
-81 -93 0
-81 -122 0
-94 -93 0
-94 -107 0
-94 -122 0
